p edge 54 698
e 1 5
e 1 6
e 1 7
e 1 8
e 1 9
e 1 12
e 1 13
e 1 14
e 1 16
e 1 20
e 1 21
e 1 23
e 1 25
e 1 27
e 1 29
e 1 30
e 1 31
e 1 32
e 1 34
e 1 35
e 1 36
e 1 37
e 1 38
e 1 39
e 1 41
e 1 43
e 1 44
e 1 45
e 1 48
e 1 49
e 1 52
e 1 54
e 2 3
e 2 4
e 2 5
e 2 6
e 2 10
e 2 11
e 2 14
e 2 19
e 2 22
e 2 24
e 2 25
e 2 26
e 2 27
e 2 28
e 2 30
e 2 31
e 2 34
e 2 35
e 2 36
e 2 37
e 2 42
e 2 43
e 2 45
e 2 50
e 2 52
e 2 54
e 3 5
e 3 6
e 3 7
e 3 8
e 3 10
e 3 14
e 3 16
e 3 18
e 3 20
e 3 22
e 3 25
e 3 26
e 3 29
e 3 30
e 3 35
e 3 36
e 3 40
e 3 42
e 3 45
e 3 50
e 3 51
e 3 52
e 3 53
e 4 6
e 4 8
e 4 10
e 4 12
e 4 15
e 4 18
e 4 21
e 4 22
e 4 24
e 4 25
e 4 28
e 4 30
e 4 31
e 4 34
e 4 35
e 4 36
e 4 42
e 4 45
e 4 47
e 4 50
e 4 51
e 4 54
e 5 6
e 5 7
e 5 9
e 5 10
e 5 13
e 5 14
e 5 15
e 5 17
e 5 18
e 5 19
e 5 24
e 5 25
e 5 26
e 5 28
e 5 30
e 5 33
e 5 34
e 5 35
e 5 36
e 5 39
e 5 44
e 5 48
e 5 50
e 5 52
e 5 54
e 6 7
e 6 9
e 6 11
e 6 12
e 6 14
e 6 17
e 6 21
e 6 23
e 6 24
e 6 25
e 6 26
e 6 28
e 6 29
e 6 31
e 6 32
e 6 33
e 6 38
e 6 39
e 6 40
e 6 41
e 6 42
e 6 44
e 6 48
e 6 50
e 6 52
e 6 53
e 6 54
e 7 8
e 7 9
e 7 10
e 7 11
e 7 12
e 7 14
e 7 15
e 7 16
e 7 17
e 7 18
e 7 19
e 7 20
e 7 21
e 7 22
e 7 23
e 7 25
e 7 26
e 7 29
e 7 30
e 7 38
e 7 39
e 7 42
e 7 45
e 7 46
e 7 47
e 7 49
e 7 50
e 7 53
e 8 17
e 8 18
e 8 19
e 8 20
e 8 21
e 8 23
e 8 25
e 8 26
e 8 27
e 8 28
e 8 31
e 8 33
e 8 35
e 8 36
e 8 38
e 8 39
e 8 40
e 8 41
e 8 42
e 8 44
e 8 45
e 8 47
e 8 48
e 8 51
e 8 54
e 9 12
e 9 13
e 9 15
e 9 18
e 9 20
e 9 22
e 9 26
e 9 28
e 9 29
e 9 31
e 9 34
e 9 36
e 9 38
e 9 39
e 9 40
e 9 41
e 9 42
e 9 44
e 9 45
e 9 46
e 9 47
e 9 48
e 9 50
e 9 51
e 9 52
e 9 53
e 10 11
e 10 13
e 10 14
e 10 16
e 10 17
e 10 18
e 10 19
e 10 22
e 10 23
e 10 25
e 10 26
e 10 29
e 10 30
e 10 33
e 10 35
e 10 38
e 10 39
e 10 42
e 10 43
e 10 45
e 10 52
e 10 53
e 10 54
e 11 12
e 11 13
e 11 14
e 11 15
e 11 17
e 11 18
e 11 24
e 11 29
e 11 30
e 11 32
e 11 33
e 11 34
e 11 35
e 11 38
e 11 41
e 11 42
e 11 43
e 11 46
e 11 47
e 11 49
e 11 50
e 11 52
e 11 54
e 12 13
e 12 14
e 12 16
e 12 21
e 12 23
e 12 26
e 12 28
e 12 29
e 12 30
e 12 31
e 12 34
e 12 36
e 12 38
e 12 39
e 12 40
e 12 41
e 12 42
e 12 43
e 12 45
e 12 46
e 12 48
e 12 49
e 12 53
e 13 14
e 13 15
e 13 17
e 13 21
e 13 22
e 13 23
e 13 25
e 13 28
e 13 29
e 13 31
e 13 35
e 13 36
e 13 39
e 13 40
e 13 41
e 13 44
e 13 45
e 13 47
e 13 51
e 13 54
e 14 16
e 14 18
e 14 19
e 14 23
e 14 24
e 14 28
e 14 29
e 14 30
e 14 34
e 14 35
e 14 36
e 14 37
e 14 43
e 14 44
e 14 45
e 14 48
e 14 53
e 15 16
e 15 17
e 15 18
e 15 19
e 15 21
e 15 23
e 15 24
e 15 26
e 15 27
e 15 28
e 15 29
e 15 32
e 15 33
e 15 34
e 15 35
e 15 36
e 15 38
e 15 40
e 15 42
e 15 45
e 15 46
e 15 48
e 15 52
e 15 53
e 15 54
e 16 19
e 16 21
e 16 22
e 16 24
e 16 25
e 16 26
e 16 27
e 16 28
e 16 30
e 16 31
e 16 32
e 16 35
e 16 36
e 16 39
e 16 40
e 16 41
e 16 43
e 16 44
e 16 47
e 16 48
e 16 49
e 16 51
e 16 53
e 17 18
e 17 20
e 17 26
e 17 28
e 17 32
e 17 37
e 17 38
e 17 40
e 17 41
e 17 42
e 17 45
e 17 46
e 17 47
e 17 48
e 17 52
e 17 54
e 18 19
e 18 21
e 18 23
e 18 24
e 18 25
e 18 26
e 18 27
e 18 33
e 18 35
e 18 36
e 18 37
e 18 43
e 18 49
e 18 50
e 18 51
e 19 21
e 19 23
e 19 26
e 19 29
e 19 30
e 19 31
e 19 33
e 19 37
e 19 38
e 19 39
e 19 43
e 19 45
e 19 54
e 20 21
e 20 22
e 20 24
e 20 25
e 20 27
e 20 28
e 20 30
e 20 31
e 20 32
e 20 33
e 20 36
e 20 37
e 20 38
e 20 42
e 20 43
e 20 44
e 20 45
e 20 47
e 20 53
e 21 23
e 21 24
e 21 28
e 21 30
e 21 31
e 21 35
e 21 38
e 21 39
e 21 40
e 21 41
e 21 43
e 21 44
e 21 46
e 21 47
e 21 48
e 21 50
e 21 51
e 21 52
e 21 54
e 22 23
e 22 24
e 22 26
e 22 28
e 22 29
e 22 31
e 22 32
e 22 34
e 22 37
e 22 39
e 22 42
e 22 45
e 22 46
e 22 48
e 22 50
e 22 51
e 22 53
e 23 24
e 23 25
e 23 26
e 23 28
e 23 29
e 23 30
e 23 31
e 23 32
e 23 34
e 23 36
e 23 37
e 23 40
e 23 43
e 23 44
e 23 45
e 23 46
e 23 47
e 23 52
e 23 53
e 24 26
e 24 29
e 24 33
e 24 35
e 24 41
e 24 44
e 24 45
e 24 48
e 24 49
e 24 50
e 24 51
e 24 53
e 25 26
e 25 29
e 25 30
e 25 37
e 25 38
e 25 40
e 25 43
e 25 44
e 25 50
e 25 51
e 25 52
e 25 53
e 26 28
e 26 33
e 26 37
e 26 38
e 26 39
e 26 41
e 26 44
e 26 53
e 27 28
e 27 32
e 27 33
e 27 34
e 27 36
e 27 37
e 27 38
e 27 39
e 27 40
e 27 42
e 27 46
e 27 47
e 27 48
e 27 50
e 27 51
e 28 30
e 28 32
e 28 35
e 28 37
e 28 38
e 28 42
e 28 46
e 28 47
e 28 50
e 28 54
e 29 30
e 29 34
e 29 35
e 29 39
e 29 40
e 29 42
e 29 43
e 29 44
e 29 45
e 29 49
e 29 51
e 29 53
e 30 31
e 30 33
e 30 34
e 30 35
e 30 36
e 30 37
e 30 39
e 30 42
e 30 44
e 30 45
e 30 47
e 30 49
e 30 51
e 30 52
e 30 53
e 31 34
e 31 36
e 31 38
e 31 45
e 31 46
e 31 48
e 31 49
e 31 50
e 31 51
e 32 34
e 32 35
e 32 38
e 32 43
e 32 44
e 32 45
e 32 50
e 32 52
e 32 54
e 33 34
e 33 35
e 33 37
e 33 42
e 33 47
e 33 51
e 33 53
e 33 54
e 34 35
e 34 38
e 34 39
e 34 40
e 34 41
e 34 45
e 34 46
e 35 36
e 35 42
e 35 44
e 35 51
e 35 52
e 36 37
e 36 39
e 36 40
e 36 41
e 36 42
e 36 53
e 37 38
e 37 41
e 37 43
e 37 44
e 37 45
e 37 46
e 37 48
e 37 49
e 37 50
e 37 51
e 37 53
e 38 41
e 38 46
e 38 47
e 38 48
e 38 49
e 39 41
e 39 45
e 39 48
e 39 51
e 39 54
e 40 41
e 40 43
e 40 44
e 40 46
e 40 49
e 40 51
e 41 42
e 41 44
e 41 47
e 41 52
e 41 53
e 42 45
e 42 46
e 42 47
e 42 50
e 42 52
e 42 53
e 43 44
e 43 45
e 43 47
e 43 50
e 43 52
e 44 47
e 44 49
e 44 50
e 44 51
e 44 53
e 45 46
e 45 49
e 45 54
e 46 49
e 46 52
e 47 49
e 47 52
e 47 54
e 49 50
e 49 52
e 49 53
e 50 51
e 50 53
e 51 52
e 51 54
e 53 54
